NAME : bays29_solution.tour
TYPE : TOUR
DIMENSION : 30
COMMENT : Tour length: 2103.0
COMMENT : Time elapsed: 69.74 [s]
TOUR_SECTION
0
20
1
2
28
25
4
8
11
5
12
9
19
3
14
17
16
13
21
10
18
24
6
22
26
15
23
7
27
0
-1
EOF
